
;this file is automatically generated: Tue Mar 02 16:20:04 CST 2021

;declarations generated

(declare-fun oclExcludes ( Int Int) Bool)
(declare-fun Cardinality ( Int) Int)
(declare-fun class7_Class7IntAttr1 ( Int) Int)
(declare-fun rel_59f48745_433d_432c_99d3_c071bfc97831_Class7_Class26 ( Int Int) Bool)
(declare-fun oclSelect ( Int Bool) Int)
(declare-fun type_4083535c_8f4c_46a4_ad93_879c8001f075_Class13 ( Int) Bool)
(declare-fun type_4083535c_8f4c_46a4_ad93_879c8001f075_Class14 ( Int) Bool)
(declare-fun type_4083535c_8f4c_46a4_ad93_879c8001f075_Class15 ( Int) Bool)
(declare-fun type_4083535c_8f4c_46a4_ad93_879c8001f075_Class16 ( Int) Bool)
(declare-fun type_4083535c_8f4c_46a4_ad93_879c8001f075_Class17 ( Int) Bool)
(declare-fun type_4083535c_8f4c_46a4_ad93_879c8001f075_Class18 ( Int) Bool)
(declare-fun type_4083535c_8f4c_46a4_ad93_879c8001f075_Class19 ( Int) Bool)
(declare-fun type_4083535c_8f4c_46a4_ad93_879c8001f075_Class10 ( Int) Bool)
(declare-fun type_4083535c_8f4c_46a4_ad93_879c8001f075_Class11 ( Int) Bool)
(declare-fun type_4083535c_8f4c_46a4_ad93_879c8001f075_Class12 ( Int) Bool)
(declare-fun type_4083535c_8f4c_46a4_ad93_879c8001f075_Class24 ( Int) Bool)
(declare-fun type_4083535c_8f4c_46a4_ad93_879c8001f075_Class25 ( Int) Bool)
(declare-fun type_4083535c_8f4c_46a4_ad93_879c8001f075_Class26 ( Int) Bool)
(declare-fun type_4083535c_8f4c_46a4_ad93_879c8001f075_Class27 ( Int) Bool)
(declare-fun type_4083535c_8f4c_46a4_ad93_879c8001f075_Class28 ( Int) Bool)
(declare-fun type_4083535c_8f4c_46a4_ad93_879c8001f075_Class29 ( Int) Bool)
(declare-fun type_4083535c_8f4c_46a4_ad93_879c8001f075_Class20 ( Int) Bool)
(declare-fun type_4083535c_8f4c_46a4_ad93_879c8001f075_Class21 ( Int) Bool)
(declare-fun type_4083535c_8f4c_46a4_ad93_879c8001f075_Class22 ( Int) Bool)
(declare-fun type_4083535c_8f4c_46a4_ad93_879c8001f075_Class23 ( Int) Bool)
(declare-fun class26_Class26IntAttr1 ( Int) Int)
(declare-fun Enum0 ( Int) Int)
(declare-fun Enum1 ( Int) Int)
(declare-fun Enum2 ( Int) Int)
(declare-fun container_ ( Int) Int)
(declare-fun oclIncludes ( Int Int) Bool)
(declare-fun obj_702fdc73_27de_4b45_8e9f_4398badc897a ( Int) Int)
(declare-fun type_4083535c_8f4c_46a4_ad93_879c8001f075_Class7 ( Int) Bool)
(declare-fun type_4083535c_8f4c_46a4_ad93_879c8001f075_Class6 ( Int) Bool)
(declare-fun type_4083535c_8f4c_46a4_ad93_879c8001f075_Class9 ( Int) Bool)
(declare-fun type_4083535c_8f4c_46a4_ad93_879c8001f075_Class8 ( Int) Bool)
(declare-fun type_4083535c_8f4c_46a4_ad93_879c8001f075_Class1 ( Int) Bool)
(declare-fun type_4083535c_8f4c_46a4_ad93_879c8001f075_Class0 ( Int) Bool)
(declare-fun type_4083535c_8f4c_46a4_ad93_879c8001f075_Class3 ( Int) Bool)
(declare-fun type_4083535c_8f4c_46a4_ad93_879c8001f075_Class2 ( Int) Bool)
(declare-fun type_4083535c_8f4c_46a4_ad93_879c8001f075_Class5 ( Int) Bool)
(declare-fun type_4083535c_8f4c_46a4_ad93_879c8001f075_Class4 ( Int) Bool)
(declare-fun ObjAt ( Int Int) Int)

;formula(s) generated
(assert (forall ((p Int)) (=> ( type_4083535c_8f4c_46a4_ad93_879c8001f075_Class26 p )  (and (>= ( Enum0 ( obj_702fdc73_27de_4b45_8e9f_4398badc897a p )  )  0) (<= ( Enum0 ( obj_702fdc73_27de_4b45_8e9f_4398badc897a p )  )  3)))))
(assert (forall ((p Int)) (=> ( type_4083535c_8f4c_46a4_ad93_879c8001f075_Class7 p )  (and (>= ( Enum1 ( obj_702fdc73_27de_4b45_8e9f_4398badc897a p )  )  0) (<= ( Enum1 ( obj_702fdc73_27de_4b45_8e9f_4398badc897a p )  )  4)))))
(assert (forall ((x Int)(y Int)) (=> (and ( rel_59f48745_433d_432c_99d3_c071bfc97831_Class7_Class26 ( obj_702fdc73_27de_4b45_8e9f_4398badc897a x )   ( obj_702fdc73_27de_4b45_8e9f_4398badc897a y )  )  (and ( type_4083535c_8f4c_46a4_ad93_879c8001f075_Class7 x )  ( type_4083535c_8f4c_46a4_ad93_879c8001f075_Class26 y ) )) (or (or (or (= (* ( Cardinality ( container_ x )  )  1) (* ( Cardinality ( container_ y )  )  0)) (= (* ( Cardinality ( container_ x )  )  3) (* ( Cardinality ( container_ y )  )  0))) (= (* ( Cardinality ( container_ x )  )  1) (* ( Cardinality ( container_ y )  )  1))) (= (* ( Cardinality ( container_ x )  )  3) (* ( Cardinality ( container_ y )  )  1))))))
(assert (! (forall ((c7_1 Int)) (=> ( type_4083535c_8f4c_46a4_ad93_879c8001f075_Class7 c7_1 )  (forall ((c26_1 Int)) (=> (and ( type_4083535c_8f4c_46a4_ad93_879c8001f075_Class26 c26_1 )  ( rel_59f48745_433d_432c_99d3_c071bfc97831_Class7_Class26 ( obj_702fdc73_27de_4b45_8e9f_4398badc897a c7_1 )   ( obj_702fdc73_27de_4b45_8e9f_4398badc897a c26_1 )  ) ) (< ( class7_Class7IntAttr1 ( obj_702fdc73_27de_4b45_8e9f_4398badc897a c7_1 )  )  ( class26_Class26IntAttr1 ( obj_702fdc73_27de_4b45_8e9f_4398badc897a c26_1 )  ) ))))):named l0))
(assert (! (or (forall ((v Int)) (=> ( type_4083535c_8f4c_46a4_ad93_879c8001f075_Class26 v )  (not (= ( Enum0 ( obj_702fdc73_27de_4b45_8e9f_4398badc897a v )  )  3) ))) (forall ((v Int)) (=> ( type_4083535c_8f4c_46a4_ad93_879c8001f075_Class26 v )  (= ( class26_Class26IntAttr1 ( obj_702fdc73_27de_4b45_8e9f_4398badc897a v )  )  9)))):named l1))
(assert (! (forall ((c7_1 Int)) (=> ( type_4083535c_8f4c_46a4_ad93_879c8001f075_Class7 c7_1 )  (forall ((c26_1 Int)) (=> (and ( type_4083535c_8f4c_46a4_ad93_879c8001f075_Class26 c26_1 )  ( rel_59f48745_433d_432c_99d3_c071bfc97831_Class7_Class26 ( obj_702fdc73_27de_4b45_8e9f_4398badc897a c7_1 )   ( obj_702fdc73_27de_4b45_8e9f_4398badc897a c26_1 )  ) ) (< ( class7_Class7IntAttr1 ( obj_702fdc73_27de_4b45_8e9f_4398badc897a c7_1 )  )  ( class26_Class26IntAttr1 ( obj_702fdc73_27de_4b45_8e9f_4398badc897a c26_1 )  ) ))))):named l2))
(assert (! (or (forall ((v Int)) (=> ( type_4083535c_8f4c_46a4_ad93_879c8001f075_Class7 v )  (>= ( class7_Class7IntAttr1 ( obj_702fdc73_27de_4b45_8e9f_4398badc897a v )  )  7))) (forall ((v Int)) (=> ( type_4083535c_8f4c_46a4_ad93_879c8001f075_Class7 v )  (= ( Enum1 ( obj_702fdc73_27de_4b45_8e9f_4398badc897a v )  )  1)))):named l3))
(assert (! (exists ((o Int)) (and ( type_4083535c_8f4c_46a4_ad93_879c8001f075_Class0 ( obj_702fdc73_27de_4b45_8e9f_4398badc897a o )  )  ( type_4083535c_8f4c_46a4_ad93_879c8001f075_Class25 ( obj_702fdc73_27de_4b45_8e9f_4398badc897a o )  ) )):named c0))
(assert (! (exists ((o Int)) ( type_4083535c_8f4c_46a4_ad93_879c8001f075_Class1 ( obj_702fdc73_27de_4b45_8e9f_4398badc897a o )  ) ):named c1))
(assert (! (exists ((o Int)) ( type_4083535c_8f4c_46a4_ad93_879c8001f075_Class10 ( obj_702fdc73_27de_4b45_8e9f_4398badc897a o )  ) ):named c2))
(assert (! (exists ((o Int)) ( type_4083535c_8f4c_46a4_ad93_879c8001f075_Class11 ( obj_702fdc73_27de_4b45_8e9f_4398badc897a o )  ) ):named c3))
(assert (! (exists ((o Int)) ( type_4083535c_8f4c_46a4_ad93_879c8001f075_Class12 ( obj_702fdc73_27de_4b45_8e9f_4398badc897a o )  ) ):named c4))
(assert (! (exists ((o Int)) (and (and ( type_4083535c_8f4c_46a4_ad93_879c8001f075_Class13 ( obj_702fdc73_27de_4b45_8e9f_4398badc897a o )  )  ( type_4083535c_8f4c_46a4_ad93_879c8001f075_Class25 ( obj_702fdc73_27de_4b45_8e9f_4398badc897a o )  ) ) ( type_4083535c_8f4c_46a4_ad93_879c8001f075_Class0 ( obj_702fdc73_27de_4b45_8e9f_4398badc897a o )  ) )):named c5))
(assert (! (exists ((o Int)) (and (and ( type_4083535c_8f4c_46a4_ad93_879c8001f075_Class14 ( obj_702fdc73_27de_4b45_8e9f_4398badc897a o )  )  ( type_4083535c_8f4c_46a4_ad93_879c8001f075_Class25 ( obj_702fdc73_27de_4b45_8e9f_4398badc897a o )  ) ) ( type_4083535c_8f4c_46a4_ad93_879c8001f075_Class17 ( obj_702fdc73_27de_4b45_8e9f_4398badc897a o )  ) )):named c6))
(assert (! (exists ((o Int)) ( type_4083535c_8f4c_46a4_ad93_879c8001f075_Class15 ( obj_702fdc73_27de_4b45_8e9f_4398badc897a o )  ) ):named c7))
(assert (! (exists ((o Int)) ( type_4083535c_8f4c_46a4_ad93_879c8001f075_Class16 ( obj_702fdc73_27de_4b45_8e9f_4398badc897a o )  ) ):named c8))
(assert (! (exists ((o Int)) (and ( type_4083535c_8f4c_46a4_ad93_879c8001f075_Class17 ( obj_702fdc73_27de_4b45_8e9f_4398badc897a o )  )  ( type_4083535c_8f4c_46a4_ad93_879c8001f075_Class25 ( obj_702fdc73_27de_4b45_8e9f_4398badc897a o )  ) )):named c9))
(assert (! (exists ((o Int)) (and (and ( type_4083535c_8f4c_46a4_ad93_879c8001f075_Class18 ( obj_702fdc73_27de_4b45_8e9f_4398badc897a o )  )  ( type_4083535c_8f4c_46a4_ad93_879c8001f075_Class25 ( obj_702fdc73_27de_4b45_8e9f_4398badc897a o )  ) ) ( type_4083535c_8f4c_46a4_ad93_879c8001f075_Class17 ( obj_702fdc73_27de_4b45_8e9f_4398badc897a o )  ) )):named c10))
(assert (! (exists ((o Int)) ( type_4083535c_8f4c_46a4_ad93_879c8001f075_Class19 ( obj_702fdc73_27de_4b45_8e9f_4398badc897a o )  ) ):named c11))
(assert (! (exists ((o Int)) ( type_4083535c_8f4c_46a4_ad93_879c8001f075_Class2 ( obj_702fdc73_27de_4b45_8e9f_4398badc897a o )  ) ):named c12))
(assert (! (exists ((o Int)) ( type_4083535c_8f4c_46a4_ad93_879c8001f075_Class20 ( obj_702fdc73_27de_4b45_8e9f_4398badc897a o )  ) ):named c13))
(assert (! (exists ((o Int)) (and (and (and ( type_4083535c_8f4c_46a4_ad93_879c8001f075_Class21 ( obj_702fdc73_27de_4b45_8e9f_4398badc897a o )  )  ( type_4083535c_8f4c_46a4_ad93_879c8001f075_Class25 ( obj_702fdc73_27de_4b45_8e9f_4398badc897a o )  ) ) ( type_4083535c_8f4c_46a4_ad93_879c8001f075_Class13 ( obj_702fdc73_27de_4b45_8e9f_4398badc897a o )  ) ) ( type_4083535c_8f4c_46a4_ad93_879c8001f075_Class0 ( obj_702fdc73_27de_4b45_8e9f_4398badc897a o )  ) )):named c14))
(assert (! (exists ((o Int)) ( type_4083535c_8f4c_46a4_ad93_879c8001f075_Class22 ( obj_702fdc73_27de_4b45_8e9f_4398badc897a o )  ) ):named c15))
(assert (! (exists ((o Int)) (and (and (and (and ( type_4083535c_8f4c_46a4_ad93_879c8001f075_Class23 ( obj_702fdc73_27de_4b45_8e9f_4398badc897a o )  )  ( type_4083535c_8f4c_46a4_ad93_879c8001f075_Class25 ( obj_702fdc73_27de_4b45_8e9f_4398badc897a o )  ) ) ( type_4083535c_8f4c_46a4_ad93_879c8001f075_Class13 ( obj_702fdc73_27de_4b45_8e9f_4398badc897a o )  ) ) ( type_4083535c_8f4c_46a4_ad93_879c8001f075_Class0 ( obj_702fdc73_27de_4b45_8e9f_4398badc897a o )  ) ) ( type_4083535c_8f4c_46a4_ad93_879c8001f075_Class21 ( obj_702fdc73_27de_4b45_8e9f_4398badc897a o )  ) )):named c16))
(assert (! (exists ((o Int)) (and (and ( type_4083535c_8f4c_46a4_ad93_879c8001f075_Class24 ( obj_702fdc73_27de_4b45_8e9f_4398badc897a o )  )  ( type_4083535c_8f4c_46a4_ad93_879c8001f075_Class25 ( obj_702fdc73_27de_4b45_8e9f_4398badc897a o )  ) ) ( type_4083535c_8f4c_46a4_ad93_879c8001f075_Class0 ( obj_702fdc73_27de_4b45_8e9f_4398badc897a o )  ) )):named c17))
(assert (! (exists ((o Int)) ( type_4083535c_8f4c_46a4_ad93_879c8001f075_Class25 ( obj_702fdc73_27de_4b45_8e9f_4398badc897a o )  ) ):named c18))
(assert (! (exists ((o Int)) ( type_4083535c_8f4c_46a4_ad93_879c8001f075_Class26 ( obj_702fdc73_27de_4b45_8e9f_4398badc897a o )  ) ):named c19))
(assert (! (exists ((o Int)) (and (and ( type_4083535c_8f4c_46a4_ad93_879c8001f075_Class27 ( obj_702fdc73_27de_4b45_8e9f_4398badc897a o )  )  ( type_4083535c_8f4c_46a4_ad93_879c8001f075_Class25 ( obj_702fdc73_27de_4b45_8e9f_4398badc897a o )  ) ) ( type_4083535c_8f4c_46a4_ad93_879c8001f075_Class17 ( obj_702fdc73_27de_4b45_8e9f_4398badc897a o )  ) )):named c20))
(assert (! (exists ((o Int)) (and (and (and (and ( type_4083535c_8f4c_46a4_ad93_879c8001f075_Class28 ( obj_702fdc73_27de_4b45_8e9f_4398badc897a o )  )  ( type_4083535c_8f4c_46a4_ad93_879c8001f075_Class25 ( obj_702fdc73_27de_4b45_8e9f_4398badc897a o )  ) ) ( type_4083535c_8f4c_46a4_ad93_879c8001f075_Class13 ( obj_702fdc73_27de_4b45_8e9f_4398badc897a o )  ) ) ( type_4083535c_8f4c_46a4_ad93_879c8001f075_Class0 ( obj_702fdc73_27de_4b45_8e9f_4398badc897a o )  ) ) ( type_4083535c_8f4c_46a4_ad93_879c8001f075_Class21 ( obj_702fdc73_27de_4b45_8e9f_4398badc897a o )  ) )):named c21))
(assert (! (exists ((o Int)) ( type_4083535c_8f4c_46a4_ad93_879c8001f075_Class29 ( obj_702fdc73_27de_4b45_8e9f_4398badc897a o )  ) ):named c22))
(assert (! (exists ((o Int)) ( type_4083535c_8f4c_46a4_ad93_879c8001f075_Class3 ( obj_702fdc73_27de_4b45_8e9f_4398badc897a o )  ) ):named c23))
(assert (! (exists ((o Int)) (and (and (and (and ( type_4083535c_8f4c_46a4_ad93_879c8001f075_Class4 ( obj_702fdc73_27de_4b45_8e9f_4398badc897a o )  )  ( type_4083535c_8f4c_46a4_ad93_879c8001f075_Class25 ( obj_702fdc73_27de_4b45_8e9f_4398badc897a o )  ) ) ( type_4083535c_8f4c_46a4_ad93_879c8001f075_Class24 ( obj_702fdc73_27de_4b45_8e9f_4398badc897a o )  ) ) ( type_4083535c_8f4c_46a4_ad93_879c8001f075_Class6 ( obj_702fdc73_27de_4b45_8e9f_4398badc897a o )  ) ) ( type_4083535c_8f4c_46a4_ad93_879c8001f075_Class0 ( obj_702fdc73_27de_4b45_8e9f_4398badc897a o )  ) )):named c24))
(assert (! (exists ((o Int)) ( type_4083535c_8f4c_46a4_ad93_879c8001f075_Class5 ( obj_702fdc73_27de_4b45_8e9f_4398badc897a o )  ) ):named c25))
(assert (! (exists ((o Int)) (and (and (and ( type_4083535c_8f4c_46a4_ad93_879c8001f075_Class6 ( obj_702fdc73_27de_4b45_8e9f_4398badc897a o )  )  ( type_4083535c_8f4c_46a4_ad93_879c8001f075_Class25 ( obj_702fdc73_27de_4b45_8e9f_4398badc897a o )  ) ) ( type_4083535c_8f4c_46a4_ad93_879c8001f075_Class24 ( obj_702fdc73_27de_4b45_8e9f_4398badc897a o )  ) ) ( type_4083535c_8f4c_46a4_ad93_879c8001f075_Class0 ( obj_702fdc73_27de_4b45_8e9f_4398badc897a o )  ) )):named c26))
(assert (! (exists ((o Int)) ( type_4083535c_8f4c_46a4_ad93_879c8001f075_Class7 ( obj_702fdc73_27de_4b45_8e9f_4398badc897a o )  ) ):named c27))
(assert (! (exists ((o Int)) ( type_4083535c_8f4c_46a4_ad93_879c8001f075_Class8 ( obj_702fdc73_27de_4b45_8e9f_4398badc897a o )  ) ):named c28))
(assert (! (exists ((o Int)) ( type_4083535c_8f4c_46a4_ad93_879c8001f075_Class9 ( obj_702fdc73_27de_4b45_8e9f_4398badc897a o )  ) ):named c29))

 ;end of formula 